
  32    4
  10   10   10   10

   0   0   0   0   0   3 2 3 4 
   8   1   0   1   3   3 7 6 5 
   4   5   0   5   5   3 7 6 5 
   9   0   1   6   4   1 5 
   4   5   0   4   4   1 8 
   5   5   5   2   0   1 8 
   7   0   3   4   2   1 8 
   2   6   0   4   5   2 11 9 
  10   5   0   4   4   1 10 
   5   5   5   3   0   2 13 12 
   2   3   5   0   2   1 12 
   2   3   2   0  10   2 15 14 
  10   4   3   5   0   2 15 14 
   1   4   2   4   0   6 21 20 19 18 17 16 
   8   2   0   3   5   5 20 19 18 17 16 
   5   8   3   5   0   2 23 22 
   7   4   0   4   4   2 23 22 
   9   3   2   0   1   2 23 22 
   8   0   5   5   4   2 23 22 
   7   3   0   6   4   2 23 22 
   6   3   5   0   5   2 23 22 
   6   0   5   5   4   2 26 24 
   3   2   0   4   7   2 26 24 
   5   2   5   0   3   2 27 25 
   6   9   7   0   3   1 28 
   4   4   4   0   3   1 27 
  10   5   0   7   2   1 29 
   6   4   5   2   0   1 29 
   7   4   3   2   0   1 30 
   1   2   7   3   0   1 31 
   6   3   3   0   4   1 32
   0   0   0   0   0   0 
